language Essence 1.3

letting blksize_delta be
        function(1 --> 7, 2 --> 9, 3 --> 7, 4 --> 7, 5 --> 7, 6 --> 7, 7 --> 10, 8 --> 9, 9 --> 7, 10 --> 10)
letting maxcars be function(1 --> 9, 2 --> 10, 3 --> 10, 4 --> 9, 5 --> 9, 6 --> 9, 7 --> 9, 8 --> 9, 9 --> 9, 10 --> 9)
letting n_cars be 243
letting n_classes be 78
letting n_options be 10
letting quantity be
        function(1 --> 6, 2 --> 8, 3 --> 3, 4 --> 3, 5 --> 3, 6 --> 3, 7 --> 3, 8 --> 3, 9 --> 3, 10 --> 3, 11 --> 3,
                 12 --> 4, 13 --> 3, 14 --> 3, 15 --> 3, 16 --> 3, 17 --> 3, 18 --> 3, 19 --> 3, 20 --> 3, 21 --> 3,
                 22 --> 3, 23 --> 3, 24 --> 3, 25 --> 3, 26 --> 3, 27 --> 3, 28 --> 3, 29 --> 3, 30 --> 3, 31 --> 3,
                 32 --> 3, 33 --> 3, 34 --> 3, 35 --> 3, 36 --> 3, 37 --> 3, 38 --> 3, 39 --> 3, 40 --> 3, 41 --> 3,
                 42 --> 3, 43 --> 3, 44 --> 3, 45 --> 3, 46 --> 3, 47 --> 3, 48 --> 3, 49 --> 3, 50 --> 3, 51 --> 3,
                 52 --> 3, 53 --> 3, 54 --> 3, 55 --> 3, 56 --> 3, 57 --> 3, 58 --> 3, 59 --> 3, 60 --> 3, 61 --> 3,
                 62 --> 3, 63 --> 3, 64 --> 3, 65 --> 3, 66 --> 3, 67 --> 3, 68 --> 3, 69 --> 3, 70 --> 3, 71 --> 3,
                 72 --> 3, 73 --> 3, 74 --> 3, 75 --> 3, 76 --> 3, 77 --> 3, 78 --> 3)
letting usage be
        relation((1, 10), (2, 5), (2, 6), (3, 1), (3, 4), (4, 4), (4, 10), (5, 10), (6, 5), (6, 6), (6, 9), (7, 1),
                 (7, 6), (8, 4), (8, 9), (9, 4), (9, 8), (10, 4), (10, 6), (10, 7), (10, 9), (11, 7), (12, 2), (13, 9),
                 (14, 10), (15, 1), (15, 7), (15, 10), (16, 1), (16, 2), (16, 4), (16, 5), (16, 7), (16, 8), (17, 2),
                 (17, 7), (17, 8), (17, 9), (18, 1), (18, 5), (18, 8), (19, 2), (19, 5), (19, 7), (20, 1), (20, 3),
                 (20, 4), (20, 5), (20, 7), (20, 8), (21, 1), (22, 6), (22, 7), (23, 4), (23, 9), (24, 3), (25, 1),
                 (25, 6), (25, 7), (25, 10), (26, 4), (27, 1), (27, 6), (28, 3), (28, 9), (29, 5), (30, 7), (30, 8),
                 (31, 1), (31, 3), (31, 10), (32, 3), (33, 4), (33, 8), (34, 9), (34, 10), (35, 4), (35, 5), (35, 10),
                 (36, 2), (36, 5), (37, 6), (37, 7), (38, 3), (39, 10), (40, 4), (40, 7), (41, 1), (41, 5), (41, 8),
                 (42, 5), (43, 1), (43, 7), (44, 8), (45, 10), (46, 1), (46, 4), (47, 5), (48, 1), (48, 4), (48, 8),
                 (48, 9), (49, 6), (49, 7), (50, 1), (50, 4), (50, 8), (51, 10), (52, 5), (52, 7), (53, 5), (54, 1),
                 (54, 3), (54, 6), (54, 7), (55, 2), (56, 1), (56, 3), (56, 8), (57, 4), (57, 10), (58, 3), (58, 6),
                 (59, 1), (59, 10), (60, 3), (60, 4), (60, 10), (61, 4), (62, 5), (62, 7), (62, 9), (63, 3), (63, 5),
                 (64, 4), (64, 5), (65, 6), (65, 7), (65, 8), (66, 1), (66, 9), (67, 8), (67, 9), (68, 3), (68, 4),
                 (68, 6), (68, 8), (69, 10), (70, 5), (70, 8), (71, 4), (71, 6), (71, 7), (71, 9), (71, 10), (72, 1),
                 (72, 3), (72, 8), (73, 8), (74, 8), (74, 9), (75, 5), (76, 1), (76, 3), (76, 8), (76, 9), (76, 10),
                 (77, 7), (78, 1), (78, 4), (78, 5), (78, 9))
$ Visualisation for usage
$  1 10
$  2  5
$  2  6
$  3  1
$  3  4
$  4  4
$  4 10
$  5 10
$  6  5
$  6  6
$  6  9
$  7  1
$  7  6
$  8  4
$  8  9
$  9  4
$  9  8
$ 10  4
$ 10  6
$ 10  7
$ 10  9
$ 11  7
$ 12  2
$ 13  9
$ 14 10
$ 15  1
$ 15  7
$ 15 10
$ 16  1
$ 16  2
$ 16  4
$ 16  5
$ 16  7
$ 16  8
$ 17  2
$ 17  7
$ 17  8
$ 17  9
$ 18  1
$ 18  5
$ 18  8
$ 19  2
$ 19  5
$ 19  7
$ 20  1
$ 20  3
$ 20  4
$ 20  5
$ 20  7
$ 20  8
$ 21  1
$ 22  6
$ 22  7
$ 23  4
$ 23  9
$ 24  3
$ 25  1
$ 25  6
$ 25  7
$ 25 10
$ 26  4
$ 27  1
$ 27  6
$ 28  3
$ 28  9
$ 29  5
$ 30  7
$ 30  8
$ 31  1
$ 31  3
$ 31 10
$ 32  3
$ 33  4
$ 33  8
$ 34  9
$ 34 10
$ 35  4
$ 35  5
$ 35 10
$ 36  2
$ 36  5
$ 37  6
$ 37  7
$ 38  3
$ 39 10
$ 40  4
$ 40  7
$ 41  1
$ 41  5
$ 41  8
$ 42  5
$ 43  1
$ 43  7
$ 44  8
$ 45 10
$ 46  1
$ 46  4
$ 47  5
$ 48  1
$ 48  4
$ 48  8
$ 48  9
$ 49  6
$ 49  7
$ 50  1
$ 50  4
$ 50  8
$ 51 10
$ 52  5
$ 52  7
$ 53  5
$ 54  1
$ 54  3
$ 54  6
$ 54  7
$ 55  2
$ 56  1
$ 56  3
$ 56  8
$ 57  4
$ 57 10
$ 58  3
$ 58  6
$ 59  1
$ 59 10
$ 60  3
$ 60  4
$ 60 10
$ 61  4
$ 62  5
$ 62  7
$ 62  9
$ 63  3
$ 63  5
$ 64  4
$ 64  5
$ 65  6
$ 65  7
$ 65  8
$ 66  1
$ 66  9
$ 67  8
$ 67  9
$ 68  3
$ 68  4
$ 68  6
$ 68  8
$ 69 10
$ 70  5
$ 70  8
$ 71  4
$ 71  6
$ 71  7
$ 71  9
$ 71 10
$ 72  1
$ 72  3
$ 72  8
$ 73  8
$ 74  8
$ 74  9
$ 75  5
$ 76  1
$ 76  3
$ 76  8
$ 76  9
$ 76 10
$ 77  7
$ 78  1
$ 78  4
$ 78  5
$ 78  9

